db/data/27672113919722235982422631039153265937.z3.out
sat
-------------------
8.350797746
